
n_res = 6;
rcap = [35, 40, 37, 38, 822, 817];
rtype = [1, 1, 1, 1, 2, 2];
n_tasks = 50;
modes =  [{1, 2, 3, 4, 5, 6}, {7, 8, 9, 10, 11, 12}, {13, 14, 15, 16, 17, 18}, {19, 20, 21, 22, 23, 24}, {25, 26, 27, 28, 29, 30}, {31, 32, 33, 34, 35, 36}, {37, 38, 39, 40, 41, 42}, {43, 44, 45, 46, 47, 48}, {49, 50, 51, 52, 53, 54}, {55, 56, 57, 58, 59, 60}, {61, 62, 63, 64, 65, 66}, {67, 68, 69, 70, 71, 72}, {73, 74, 75, 76, 77, 78}, {79, 80, 81, 82, 83, 84}, {85, 86, 87, 88, 89, 90}, {91, 92, 93, 94, 95, 96}, {97, 98, 99, 100, 101, 102}, {103, 104, 105, 106, 107, 108}, {109, 110, 111, 112, 113, 114}, {115, 116, 117, 118, 119, 120}, {121, 122, 123, 124, 125, 126}, {127, 128, 129, 130, 131, 132}, {133, 134, 135, 136, 137, 138}, {139, 140, 141, 142, 143, 144}, {145, 146, 147, 148, 149, 150}, {151, 152, 153, 154, 155, 156}, {157, 158, 159, 160, 161, 162}, {163, 164, 165, 166, 167, 168}, {169, 170, 171, 172, 173, 174}, {175, 176, 177, 178, 179, 180}, {181, 182, 183, 184, 185, 186}, {187, 188, 189, 190, 191, 192}, {193, 194, 195, 196, 197, 198}, {199, 200, 201, 202, 203, 204}, {205, 206, 207, 208, 209, 210}, {211, 212, 213, 214, 215, 216}, {217, 218, 219, 220, 221, 222}, {223, 224, 225, 226, 227, 228}, {229, 230, 231, 232, 233, 234}, {235, 236, 237, 238, 239, 240}, {241, 242, 243, 244, 245, 246}, {247, 248, 249, 250, 251, 252}, {253, 254, 255, 256, 257, 258}, {259, 260, 261, 262, 263, 264}, {265, 266, 267, 268, 269, 270}, {271, 272, 273, 274, 275, 276}, {277, 278, 279, 280, 281, 282}, {283, 284, 285, 286, 287, 288}, {289, 290, 291, 292, 293, 294}, {295, 296, 297, 298, 299, 300}];
succ =  [{49, 30, 29, 27, 26, 21, 17, 16, 12, 6}, {48, 28, 20, 16, 11, 7}, {47, 46, 43, 34, 30, 29, 26, 24, 21, 20, 17, 16}, {49, 47, 46, 45, 44, 42, 41, 40, 39, 38, 37, 35, 29, 28, 23}, {49, 44, 43, 42, 40, 39, 38, 37, 36, 35, 34, 33, 32, 29, 27}, {50, 48, 47, 46, 44, 43, 41, 40, 37, 34, 33, 32, 20}, {49, 47, 45, 44, 41, 37, 34, 33, 32, 29, 17}, {48, 43, 38, 37, 36, 33, 15}, {49, 48, 44, 43, 36, 34, 32, 27, 17}, {50, 48, 44, 43, 42, 41, 38, 37, 35, 34, 31, 26}, {46, 43, 42, 40, 39, 37, 36, 35, 34, 32, 24}, {48, 46, 37, 36, 35, 24, 23}, {47, 45, 40, 39, 28, 26, 23}, {47, 45, 43, 41, 39, 38, 37, 33, 32, 31}, {46, 34, 32, 17}, {45, 37, 35, 33, 32, 31}, {42, 40, 39, 35, 31}, {45, 44, 43, 36, 33}, {45, 23}, {38, 36, 35, 31}, {44, 41, 33, 32}, {50, 37, 36, 33}, {34, 33, 32}, {41, 38, 31}, {34, 33, 31}, {36, 32}, {28}, {31}, {31}, {31}, {}, {}, {}, {}, {}, {}, {}, {}, {}, {}, {}, {}, {}, {}, {}, {}, {}, {}, {}, {}];
n_opt = 300;
dur = [7, 8, 14, 21, 25, 26, 15, 18, 20, 21, 24, 28, 5, 6, 7, 8, 10, 28, 12, 16, 19, 24, 29, 30, 5, 9, 10, 11, 19, 21, 6, 18, 20, 21, 23, 29, 3, 11, 20, 21, 27, 28, 5, 6, 7, 8, 15, 29, 2, 3, 6, 12, 20, 21, 10, 11, 19, 27, 28, 30, 3, 9, 13, 14, 21, 22, 10, 13, 15, 20, 21, 27, 2, 13, 16, 17, 21, 24, 3, 5, 6, 10, 23, 24, 17, 19, 22, 28, 29, 30, 2, 6, 10, 13, 14, 18, 4, 6, 8, 17, 20, 26, 3, 9, 10, 11, 18, 26, 4, 5, 13, 16, 21, 24, 1, 4, 10, 20, 23, 26, 1, 2, 11, 12, 16, 17, 14, 15, 16, 17, 22, 28, 11, 14, 15, 16, 17, 18, 4, 10, 13, 14, 28, 29, 5, 7, 11, 19, 27, 28, 1, 2, 18, 19, 21, 28, 3, 4, 13, 14, 22, 27, 6, 9, 17, 18, 28, 29, 3, 8, 17, 20, 26, 29, 1, 10, 15, 18, 25, 30, 2, 9, 22, 24, 29, 30, 17, 18, 20, 21, 24, 26, 1, 3, 4, 22, 23, 28, 3, 4, 8, 9, 12, 30, 7, 10, 12, 13, 26, 30, 3, 4, 11, 16, 20, 21, 6, 18, 19, 20, 22, 30, 9, 12, 16, 19, 20, 25, 2, 13, 17, 18, 23, 24, 8, 9, 10, 23, 24, 25, 1, 4, 5, 6, 22, 24, 4, 8, 9, 14, 19, 23, 3, 7, 8, 11, 14, 22, 13, 14, 15, 19, 24, 29, 6, 7, 11, 15, 22, 25, 7, 9, 21, 22, 23, 24, 3, 6, 15, 22, 27, 29, 2, 7, 14, 15, 19, 28, 1, 4, 5, 9, 18, 26, 14, 16, 25, 26, 27, 29];
rreq = [|4, 4, 4, 4, 4, 4, 4, 4, 3, 3, 2, 1, 5, 4, 3, 3, 1, 1, 5, 3, 3, 3, 2, 1, 3, 3, 2, 2, 2, 1, 3, 3, 3, 3, 3, 3, 4, 4, 4, 4, 4, 4, 3, 2, 2, 1, 1, 1, 4, 4, 3, 3, 1, 1, 2, 2, 2, 2, 1, 1, 3, 3, 3, 3, 3, 3, 4, 4, 3, 3, 2, 2, 3, 3, 3, 2, 2, 1, 1, 1, 1, 1, 1, 1, 2, 2, 2, 2, 2, 2, 5, 3, 3, 2, 2, 1, 3, 2, 2, 2, 2, 2, 5, 3, 3, 2, 2, 1, 3, 2, 2, 2, 1, 1, 2, 2, 2, 2, 2, 2, 1, 1, 1, 1, 1, 1, 3, 3, 3, 2, 2, 1, 4, 3, 2, 2, 2, 1, 3, 3, 3, 3, 3, 3, 1, 1, 1, 1, 1, 1, 4, 4, 4, 4, 4, 4, 2, 2, 2, 2, 2, 2, 5, 4, 4, 3, 3, 3, 5, 3, 3, 2, 1, 1, 5, 4, 4, 4, 3, 3, 3, 2, 2, 1, 1, 1, 5, 4, 4, 4, 4, 4, 3, 2, 2, 2, 2, 2, 2, 2, 2, 2, 1, 1, 5, 4, 4, 4, 4, 4, 4, 3, 3, 2, 2, 1, 3, 2, 2, 2, 2, 2, 4, 4, 4, 4, 4, 4, 3, 2, 2, 2, 2, 2, 1, 1, 1, 1, 1, 1, 4, 4, 4, 4, 4, 4, 5, 4, 3, 3, 2, 1, 3, 3, 3, 3, 3, 3, 2, 2, 2, 2, 2, 2, 4, 4, 4, 4, 4, 4, 3, 3, 3, 3, 3, 3, 2, 2, 2, 2, 2, 2, 2, 2, 2, 2, 2, 2, 3, 3, 3, 3, 3, 3, 4, 3, 3, 3, 3, 3
 |4, 3, 3, 2, 2, 1, 4, 4, 4, 3, 3, 3, 1, 1, 1, 1, 1, 1, 4, 4, 4, 4, 3, 3, 4, 4, 4, 4, 4, 4, 5, 4, 4, 4, 4, 4, 3, 3, 3, 3, 3, 3, 4, 3, 3, 3, 2, 2, 1, 1, 1, 1, 1, 1, 4, 3, 3, 3, 3, 3, 2, 2, 2, 2, 2, 2, 1, 1, 1, 1, 1, 1, 4, 3, 3, 2, 2, 2, 4, 3, 3, 3, 2, 2, 3, 3, 3, 3, 3, 3, 5, 4, 4, 3, 3, 3, 5, 4, 4, 4, 3, 3, 3, 3, 3, 3, 3, 3, 4, 3, 3, 3, 2, 2, 2, 2, 2, 2, 2, 2, 3, 2, 2, 2, 2, 2, 4, 4, 4, 4, 4, 4, 4, 4, 3, 3, 2, 2, 5, 4, 4, 3, 3, 3, 5, 4, 4, 4, 3, 3, 3, 3, 3, 3, 3, 3, 3, 2, 2, 2, 1, 1, 5, 5, 5, 5, 5, 5, 5, 4, 4, 3, 3, 2, 4, 4, 4, 3, 3, 3, 3, 3, 3, 3, 3, 3, 4, 3, 3, 2, 2, 2, 4, 3, 3, 3, 3, 3, 4, 4, 4, 4, 4, 4, 3, 2, 2, 2, 2, 2, 4, 3, 3, 2, 2, 1, 4, 4, 4, 4, 3, 3, 3, 2, 2, 2, 1, 1, 2, 2, 2, 1, 1, 1, 4, 4, 4, 4, 4, 4, 4, 3, 3, 2, 2, 2, 3, 3, 3, 3, 3, 3, 4, 4, 4, 4, 4, 4, 5, 4, 4, 4, 3, 3, 2, 1, 1, 1, 1, 1, 5, 4, 3, 3, 2, 1, 2, 2, 2, 2, 2, 2, 3, 2, 2, 1, 1, 1, 2, 2, 2, 2, 1, 1, 4, 4, 4, 4, 4, 4
 |3, 3, 3, 2, 2, 2, 3, 3, 3, 3, 2, 2, 5, 5, 5, 5, 5, 5, 2, 1, 1, 1, 1, 1, 4, 4, 4, 4, 4, 4, 1, 1, 1, 1, 1, 1, 4, 4, 3, 3, 2, 2, 3, 3, 3, 3, 3, 3, 3, 3, 3, 3, 2, 2, 4, 4, 4, 4, 3, 3, 2, 1, 1, 1, 1, 1, 4, 4, 4, 4, 3, 3, 4, 3, 3, 3, 3, 3, 2, 2, 2, 1, 1, 1, 4, 4, 4, 4, 4, 4, 3, 3, 3, 2, 1, 1, 5, 4, 4, 4, 4, 4, 3, 3, 3, 3, 2, 2, 4, 3, 3, 2, 2, 2, 2, 2, 2, 1, 1, 1, 3, 3, 3, 3, 3, 3, 2, 2, 2, 2, 2, 2, 2, 2, 2, 2, 2, 2, 4, 4, 4, 4, 4, 4, 4, 3, 2, 2, 1, 1, 5, 4, 4, 4, 4, 4, 3, 3, 2, 2, 2, 1, 2, 2, 2, 2, 1, 1, 3, 2, 2, 2, 1, 1, 4, 3, 3, 3, 3, 3, 3, 3, 3, 3, 3, 3, 4, 4, 4, 4, 4, 4, 3, 3, 2, 2, 2, 1, 3, 3, 3, 3, 3, 3, 4, 4, 4, 4, 4, 4, 1, 1, 1, 1, 1, 1, 3, 3, 3, 2, 2, 1, 5, 4, 4, 3, 3, 3, 5, 5, 5, 5, 5, 5, 3, 3, 3, 2, 2, 1, 4, 4, 4, 3, 2, 2, 4, 3, 2, 2, 1, 1, 5, 4, 3, 2, 1, 1, 4, 4, 3, 3, 1, 1, 3, 3, 3, 3, 2, 2, 3, 3, 3, 2, 2, 1, 5, 5, 5, 5, 5, 5, 4, 3, 3, 3, 2, 1, 3, 3, 3, 3, 3, 3, 5, 4, 4, 3, 3, 3
 |4, 4, 4, 4, 4, 4, 3, 3, 3, 3, 3, 3, 2, 2, 2, 2, 1, 1, 2, 1, 1, 1, 1, 1, 4, 3, 3, 3, 3, 3, 3, 3, 3, 3, 3, 3, 4, 3, 3, 3, 3, 3, 2, 2, 2, 2, 1, 1, 4, 4, 4, 4, 3, 3, 2, 2, 2, 2, 2, 2, 1, 1, 1, 1, 1, 1, 3, 3, 3, 3, 3, 3, 4, 4, 3, 3, 2, 2, 5, 4, 4, 4, 4, 4, 3, 2, 2, 1, 1, 1, 3, 3, 3, 3, 2, 2, 4, 4, 3, 2, 1, 1, 2, 2, 2, 2, 2, 2, 3, 3, 3, 2, 2, 2, 4, 3, 2, 2, 2, 1, 5, 4, 4, 4, 3, 3, 4, 4, 3, 3, 2, 2, 4, 3, 3, 3, 2, 2, 3, 3, 3, 3, 2, 2, 5, 4, 4, 3, 3, 2, 3, 2, 2, 2, 2, 2, 3, 2, 2, 2, 1, 1, 3, 3, 3, 3, 2, 2, 4, 4, 4, 4, 3, 3, 4, 3, 3, 3, 3, 3, 3, 3, 3, 2, 1, 1, 5, 4, 4, 4, 4, 4, 5, 5, 5, 5, 5, 5, 2, 1, 1, 1, 1, 1, 1, 1, 1, 1, 1, 1, 4, 4, 4, 4, 4, 4, 5, 4, 4, 3, 2, 2, 5, 5, 5, 5, 5, 5, 2, 2, 2, 1, 1, 1, 5, 4, 3, 3, 3, 2, 3, 3, 3, 3, 3, 3, 5, 4, 4, 4, 4, 4, 5, 4, 3, 2, 1, 1, 2, 2, 2, 1, 1, 1, 3, 3, 3, 3, 3, 3, 3, 3, 3, 3, 3, 3, 5, 3, 3, 3, 2, 1, 4, 3, 3, 2, 2, 1, 2, 1, 1, 1, 1, 1, 3, 3, 3, 3, 3, 3
 |15, 14, 12, 12, 10, 8, 21, 18, 15, 12, 8, 5, 18, 17, 17, 16, 15, 13, 26, 23, 18, 14, 10, 5, 22, 20, 20, 20, 19, 18, 12, 11, 11, 11, 10, 10, 22, 21, 18, 10, 5, 2, 26, 23, 21, 19, 14, 9, 20, 17, 14, 10, 8, 8, 16, 15, 13, 10, 9, 7, 26, 26, 26, 25, 25, 25, 22, 19, 18, 17, 15, 12, 9, 9, 8, 7, 6, 6, 11, 11, 11, 11, 11, 11, 19, 16, 15, 13, 11, 9, 18, 16, 16, 13, 11, 10, 24, 21, 20, 16, 13, 8, 18, 14, 12, 10, 8, 5, 18, 17, 16, 15, 14, 14, 15, 15, 15, 14, 14, 13, 21, 20, 15, 13, 10, 8, 13, 11, 10, 8, 5, 4, 22, 22, 22, 22, 21, 21, 28, 27, 26, 26, 25, 24, 25, 24, 23, 21, 21, 20, 18, 18, 17, 15, 14, 14, 27, 27, 27, 27, 27, 27, 18, 17, 14, 12, 10, 9, 22, 22, 20, 17, 14, 14, 29, 21, 20, 13, 12, 9, 25, 21, 17, 17, 13, 11, 29, 28, 28, 27, 27, 27, 27, 26, 24, 23, 22, 22, 30, 24, 20, 16, 12, 6, 25, 25, 25, 24, 23, 23, 18, 17, 16, 15, 14, 13, 4, 3, 3, 2, 2, 1, 10, 8, 7, 7, 5, 5, 7, 7, 6, 6, 5, 5, 28, 26, 23, 22, 22, 20, 20, 19, 17, 13, 11, 9, 27, 23, 18, 15, 8, 1, 28, 28, 28, 27, 27, 27, 17, 17, 17, 16, 16, 15, 17, 16, 13, 12, 9, 9, 29, 28, 26, 25, 25, 23, 27, 24, 22, 20, 20, 17, 15, 13, 11, 8, 6, 1, 27, 25, 25, 24, 22, 22, 25, 19, 18, 12, 10, 3
 |25, 20, 15, 15, 9, 2, 28, 22, 21, 17, 16, 12, 24, 21, 19, 19, 17, 14, 26, 26, 23, 21, 18, 15, 21, 18, 16, 14, 12, 11, 27, 25, 24, 23, 24, 23, 28, 23, 21, 17, 16, 12, 10, 8, 6, 5, 4, 1, 16, 16, 15, 13, 12, 11, 16, 15, 15, 15, 14, 14, 14, 13, 12, 11, 10, 9, 6, 4, 4, 3, 2, 2, 25, 23, 22, 20, 19, 17, 13, 11, 9, 8, 8, 7, 5, 5, 4, 4, 3, 3, 18, 17, 16, 16, 16, 15, 29, 29, 28, 28, 27, 27, 7, 6, 5, 4, 3, 2, 26, 23, 21, 18, 17, 15, 25, 24, 23, 21, 20, 19, 16, 13, 9, 8, 6, 2, 20, 18, 16, 15, 12, 11, 24, 24, 24, 23, 23, 23, 21, 20, 19, 18, 17, 17, 26, 25, 18, 18, 12, 10, 10, 8, 8, 6, 6, 5, 25, 23, 22, 21, 19, 18, 15, 14, 14, 13, 12, 12, 18, 16, 14, 12, 10, 6, 15, 13, 12, 11, 6, 6, 25, 24, 23, 19, 17, 16, 27, 26, 25, 25, 24, 23, 19, 16, 15, 12, 9, 9, 19, 17, 16, 12, 5, 5, 29, 26, 22, 21, 17, 14, 14, 13, 13, 10, 8, 7, 26, 26, 20, 19, 15, 14, 17, 15, 14, 11, 11, 9, 22, 21, 21, 20, 17, 16, 21, 20, 17, 15, 13, 13, 8, 7, 7, 7, 6, 5, 30, 24, 22, 22, 18, 15, 23, 18, 14, 10, 7, 4, 23, 20, 19, 18, 14, 13, 18, 15, 14, 10, 10, 6, 26, 20, 17, 16, 14, 9, 28, 27, 25, 24, 24, 23, 24, 24, 24, 24, 24, 24, 28, 26, 25, 26, 25, 24, 23, 22, 21, 17, 17, 13|];